c File: instances/10_0.40_1.col
c
c Description: Random graph of size 10 vertices and P(0.39999999999999997) of edges between any two vertices.
p col 10 45
e 1 3
e 1 4
e 1 5
e 1 7
e 2 4
e 2 5
e 2 6
e 2 8
e 3 7
e 3 10
e 4 5
e 4 7
e 4 9
e 5 7
e 5 8
e 5 9
e 7 8
e 7 9
e 7 10
e 8 9
e 9 10